p cnf 36 370
1 5 9 13 17 21 25 29 33 0
2 6 10 14 18 22 26 30 34 0
3 7 11 15 19 23 27 31 35 0
4 8 12 16 20 24 28 32 36 0
-1 -2 0
-1 -3 0
-1 -4 0
-2 -3 0
-2 -4 0
-3 -4 0
-5 -6 0
-5 -7 0
-5 -8 0
-6 -7 0
-6 -8 0
-7 -8 0
-9 -10 0
-9 -11 0
-9 -12 0
-10 -11 0
-10 -12 0
-11 -12 0
-13 -14 0
-13 -15 0
-13 -16 0
-14 -15 0
-14 -16 0
-15 -16 0
-17 -18 0
-17 -19 0
-17 -20 0
-18 -19 0
-18 -20 0
-19 -20 0
-21 -22 0
-21 -23 0
-21 -24 0
-22 -23 0
-22 -24 0
-23 -24 0
-25 -26 0
-25 -27 0
-25 -28 0
-26 -27 0
-26 -28 0
-27 -28 0
-29 -30 0
-29 -31 0
-29 -32 0
-30 -31 0
-30 -32 0
-31 -32 0
-33 -34 0
-33 -35 0
-33 -36 0
-34 -35 0
-34 -36 0
-35 -36 0
-1 -6 0
-1 -7 0
-1 -8 0
-2 -5 0
-2 -7 0
-2 -8 0
-3 -5 0
-3 -6 0
-3 -8 0
-4 -5 0
-4 -6 0
-4 -7 0
-1 -14 0
-1 -15 0
-1 -16 0
-2 -13 0
-2 -15 0
-2 -16 0
-3 -13 0
-3 -14 0
-3 -16 0
-4 -13 0
-4 -14 0
-4 -15 0
-1 -22 0
-1 -23 0
-1 -24 0
-2 -21 0
-2 -23 0
-2 -24 0
-3 -21 0
-3 -22 0
-3 -24 0
-4 -21 0
-4 -22 0
-4 -23 0
-1 -26 0
-1 -27 0
-1 -28 0
-2 -25 0
-2 -27 0
-2 -28 0
-3 -25 0
-3 -26 0
-3 -28 0
-4 -25 0
-4 -26 0
-4 -27 0
-1 -30 0
-1 -31 0
-1 -32 0
-2 -29 0
-2 -31 0
-2 -32 0
-3 -29 0
-3 -30 0
-3 -32 0
-4 -29 0
-4 -30 0
-4 -31 0
-5 -10 0
-5 -11 0
-5 -12 0
-6 -9 0
-6 -11 0
-6 -12 0
-7 -9 0
-7 -10 0
-7 -12 0
-8 -9 0
-8 -10 0
-8 -11 0
-5 -18 0
-5 -19 0
-5 -20 0
-6 -17 0
-6 -19 0
-6 -20 0
-7 -17 0
-7 -18 0
-7 -20 0
-8 -17 0
-8 -18 0
-8 -19 0
-5 -22 0
-5 -23 0
-5 -24 0
-6 -21 0
-6 -23 0
-6 -24 0
-7 -21 0
-7 -22 0
-7 -24 0
-8 -21 0
-8 -22 0
-8 -23 0
-5 -30 0
-5 -31 0
-5 -32 0
-6 -29 0
-6 -31 0
-6 -32 0
-7 -29 0
-7 -30 0
-7 -32 0
-8 -29 0
-8 -30 0
-8 -31 0
-5 -34 0
-5 -35 0
-5 -36 0
-6 -33 0
-6 -35 0
-6 -36 0
-7 -33 0
-7 -34 0
-7 -36 0
-8 -33 0
-8 -34 0
-8 -35 0
-9 -14 0
-9 -15 0
-9 -16 0
-10 -13 0
-10 -15 0
-10 -16 0
-11 -13 0
-11 -14 0
-11 -16 0
-12 -13 0
-12 -14 0
-12 -15 0
-9 -22 0
-9 -23 0
-9 -24 0
-10 -21 0
-10 -23 0
-10 -24 0
-11 -21 0
-11 -22 0
-11 -24 0
-12 -21 0
-12 -22 0
-12 -23 0
-9 -26 0
-9 -27 0
-9 -28 0
-10 -25 0
-10 -27 0
-10 -28 0
-11 -25 0
-11 -26 0
-11 -28 0
-12 -25 0
-12 -26 0
-12 -27 0
-9 -30 0
-9 -31 0
-9 -32 0
-10 -29 0
-10 -31 0
-10 -32 0
-11 -29 0
-11 -30 0
-11 -32 0
-12 -29 0
-12 -30 0
-12 -31 0
-9 -34 0
-9 -35 0
-9 -36 0
-10 -33 0
-10 -35 0
-10 -36 0
-11 -33 0
-11 -34 0
-11 -36 0
-12 -33 0
-12 -34 0
-12 -35 0
-13 -18 0
-13 -19 0
-13 -20 0
-14 -17 0
-14 -19 0
-14 -20 0
-15 -17 0
-15 -18 0
-15 -20 0
-16 -17 0
-16 -18 0
-16 -19 0
-13 -26 0
-13 -27 0
-13 -28 0
-14 -25 0
-14 -27 0
-14 -28 0
-15 -25 0
-15 -26 0
-15 -28 0
-16 -25 0
-16 -26 0
-16 -27 0
-13 -30 0
-13 -31 0
-13 -32 0
-14 -29 0
-14 -31 0
-14 -32 0
-15 -29 0
-15 -30 0
-15 -32 0
-16 -29 0
-16 -30 0
-16 -31 0
-13 -34 0
-13 -35 0
-13 -36 0
-14 -33 0
-14 -35 0
-14 -36 0
-15 -33 0
-15 -34 0
-15 -36 0
-16 -33 0
-16 -34 0
-16 -35 0
-17 -22 0
-17 -23 0
-17 -24 0
-18 -21 0
-18 -23 0
-18 -24 0
-19 -21 0
-19 -22 0
-19 -24 0
-20 -21 0
-20 -22 0
-20 -23 0
-17 -26 0
-17 -27 0
-17 -28 0
-18 -25 0
-18 -27 0
-18 -28 0
-19 -25 0
-19 -26 0
-19 -28 0
-20 -25 0
-20 -26 0
-20 -27 0
-17 -30 0
-17 -31 0
-17 -32 0
-18 -29 0
-18 -31 0
-18 -32 0
-19 -29 0
-19 -30 0
-19 -32 0
-20 -29 0
-20 -30 0
-20 -31 0
-21 -26 0
-21 -27 0
-21 -28 0
-22 -25 0
-22 -27 0
-22 -28 0
-23 -25 0
-23 -26 0
-23 -28 0
-24 -25 0
-24 -26 0
-24 -27 0
-25 -30 0
-25 -31 0
-25 -32 0
-26 -29 0
-26 -31 0
-26 -32 0
-27 -29 0
-27 -30 0
-27 -32 0
-28 -29 0
-28 -30 0
-28 -31 0
-25 -34 0
-25 -35 0
-25 -36 0
-26 -33 0
-26 -35 0
-26 -36 0
-27 -33 0
-27 -34 0
-27 -36 0
-28 -33 0
-28 -34 0
-28 -35 0
-29 -34 0
-29 -35 0
-29 -36 0
-30 -33 0
-30 -35 0
-30 -36 0
-31 -33 0
-31 -34 0
-31 -36 0
-32 -33 0
-32 -34 0
-32 -35 0
